48, 1246
805, 46
1495, 51
2393, 69
1580, 63
1826, 48
987, 43
656, 4
1869, 34
1343, 24
1186, 6
2214, 93
1478, 16
1048, 85
2063, 54
1911, 58
2045, 82
1725, 41
853, 82
503, 95
1038, 91
1576, 7
2396, 0
1131, 3
2491, 87
1839, 13
1729, 59
871, 62
2272, 54
1866, 40
1666, 86
1053, 56
1193, 35
606, 90
818, 29
748, 30
1742, 100
1286, 34
1265, 38
1542, 52
1536, 44
1138, 44
940, 81
1567, 57
2493, 47
754, 90
2214, 65
1772, 47
1356, 73